; crossover-left-arm-stretchXelbows-extension
(set-info :status unknown)
(set-logic QF_AUFLIRA)
(declare-fun |HandLeft Norm| () Real)
(declare-fun |HandLeft Z| () Real)
(declare-fun |SpineMid Norm| () Real)
(declare-fun |SpineShoulder Norm| () Real)
(declare-fun |ShoulderLeft Norm| () Real)
(declare-fun |ShoulderLeft Z| () Real)
(declare-fun |ElbowLeft Norm| () Real)
(declare-fun |WristLeft Norm| () Real)
(declare-fun |WristLeft Z| () Real)
(declare-fun |ElbowRight Norm| () Real)
(declare-fun |ShoulderRight Norm| () Real)
(declare-fun |ShoulderRight Z| () Real)
(declare-fun |HandLeft Y| () Real)
(declare-fun |ShoulderLeft Y| () Real)
(declare-fun |WristLeft Y| () Real)
(declare-fun |ShoulderRight Y| () Real)
(declare-fun |HandLeft X| () Real)
(declare-fun |ShoulderLeft X| () Real)
(declare-fun |WristLeft X| () Real)
(declare-fun |ShoulderRight X| () Real)
(declare-fun |HandRight Norm| () Real)
(declare-fun |HandRight Z| () Real)
(declare-fun |SpineMid Z| () Real)
(declare-fun |SpineShoulder Z| () Real)
(declare-fun |WristRight Norm| () Real)
(declare-fun |HandRight Y| () Real)
(declare-fun |SpineMid Y| () Real)
(declare-fun |SpineShoulder Y| () Real)
(declare-fun |HandRight X| () Real)
(declare-fun |SpineMid X| () Real)
(declare-fun |SpineShoulder X| () Real)
(declare-fun |ThumbRight Z| () Real)
(declare-fun |ThumbRight Y| () Real)
(declare-fun |ThumbRight X| () Real)
(assert
(let ((?x5357 (* |HandLeft Z| |HandLeft Norm|)))
(let ((?x4372 (* 0.0 |SpineMid Norm|)))
(let ((?x10834 (* 0.0 |SpineShoulder Norm|)))
(let ((?x420 (* |ShoulderLeft Z| |ShoulderLeft Norm|)))
(let ((?x7599 (* 0.0 |ElbowLeft Norm|)))
(let ((?x4542 (* |WristLeft Z| |WristLeft Norm|)))
(let ((?x4357 (+ 0.0 ?x5357)))
(let ((?x5452 (+ ?x4357 ?x4542)))
(let ((?x6633 (+ ?x5452 ?x7599)))
(let ((?x7830 (+ ?x6633 ?x420)))
(let ((?x9220 (+ ?x7830 ?x10834)))
(let ((?x8814 (+ ?x9220 ?x4372)))
(let ((?x9971 (+ ?x8814 ?x5357)))
(let ((?x5041 (* 0.0 |ElbowRight Norm|)))
(let ((?x4101 (* |ShoulderRight Z| |ShoulderRight Norm|)))
(let ((?x5002 (+ 0.0 ?x5041)))
(let ((?x10222 (+ ?x5002 ?x4101)))
(let ((?x8962 (+ ?x10222 ?x10834)))
(let ((?x8446 (+ ?x8962 ?x4372)))
(let ((?x3204 (+ ?x8446 ?x5041)))
(let ((?x3715 (- ?x3204 ?x9971)))
(let ((?x6211 (- 0.0 ?x3715)))
(let (($x9133 (>= ?x3715 0.0)))
(let ((?x7436 (ite $x9133 ?x3715 ?x6211)))
(let ((?x5556 (* |HandLeft Y| |HandLeft Norm|)))
(let ((?x9973 (* 1.0 |SpineMid Norm|)))
(let ((?x7483 (* 1.0 |SpineShoulder Norm|)))
(let ((?x417 (* |ShoulderLeft Y| |ShoulderLeft Norm|)))
(let ((?x7299 (* 1.0 |ElbowLeft Norm|)))
(let ((?x5443 (* |WristLeft Y| |WristLeft Norm|)))
(let ((?x3426 (+ 0.0 ?x5556)))
(let ((?x4574 (+ ?x3426 ?x5443)))
(let ((?x10817 (+ ?x4574 ?x7299)))
(let ((?x10905 (+ ?x10817 ?x417)))
(let ((?x9878 (+ ?x10905 ?x7483)))
(let ((?x4818 (+ ?x9878 ?x9973)))
(let ((?x4107 (+ ?x4818 ?x5556)))
(let ((?x985 (* 1.0 |ElbowRight Norm|)))
(let ((?x5302 (* |ShoulderRight Y| |ShoulderRight Norm|)))
(let ((?x11352 (+ 0.0 ?x985)))
(let ((?x1011 (+ ?x11352 ?x5302)))
(let ((?x4437 (+ ?x1011 ?x7483)))
(let ((?x6410 (+ ?x4437 ?x9973)))
(let ((?x5517 (+ ?x6410 ?x985)))
(let ((?x8899 (- ?x5517 ?x4107)))
(let ((?x2495 (- 0.0 ?x8899)))
(let (($x9345 (>= ?x8899 0.0)))
(let ((?x11496 (ite $x9345 ?x8899 ?x2495)))
(let ((?x5403 (* |HandLeft X| |HandLeft Norm|)))
(let ((?x416 (* |ShoulderLeft X| |ShoulderLeft Norm|)))
(let ((?x5524 (* |WristLeft X| |WristLeft Norm|)))
(let ((?x4526 (+ 0.0 ?x5403)))
(let ((?x4668 (+ ?x4526 ?x5524)))
(let ((?x7126 (+ ?x4668 ?x7599)))
(let ((?x3312 (+ ?x7126 ?x416)))
(let ((?x2455 (+ ?x3312 ?x10834)))
(let ((?x3145 (+ ?x2455 ?x4372)))
(let ((?x8982 (+ ?x3145 ?x5403)))
(let ((?x5113 (* |ShoulderRight X| |ShoulderRight Norm|)))
(let ((?x5070 (+ ?x5002 ?x5113)))
(let ((?x5376 (+ ?x5070 ?x10834)))
(let ((?x8888 (+ ?x5376 ?x4372)))
(let ((?x5400 (+ ?x8888 ?x5041)))
(let ((?x10013 (- ?x5400 ?x8982)))
(let ((?x3632 (- 0.0 ?x10013)))
(let (($x4754 (>= ?x10013 0.0)))
(let ((?x6864 (ite $x4754 ?x10013 ?x3632)))
(let (($x8752 (>= ?x6864 ?x11496)))
(let ((?x3830 (ite $x8752 ?x6864 ?x11496)))
(let (($x11569 (>= ?x3830 ?x7436)))
(let ((?x1306 (ite $x11569 ?x3830 ?x7436)))
(let (($x4458 (< ?x1306 (/ 1.0 5.0))))
(let (($x5265 (and true $x4458)))
(let (($x6883 (and true true)))
(let (($x9856 (and $x6883 $x5265)))
(let (($x7686 (and $x9856 $x5265)))
(let (($x8987 (and $x7686 $x5265)))
(let ((?x3920 (* |HandRight Z| |HandRight Norm|)))
(let ((?x159 (* |SpineMid Z| |SpineMid Norm|)))
(let ((?x435 (* |SpineShoulder Z| |SpineShoulder Norm|)))
(let ((?x9996 (* 0.0 |WristRight Norm|)))
(let ((?x5111 (+ 0.0 ?x3920)))
(let ((?x5478 (+ ?x5111 ?x9996)))
(let ((?x9795 (+ ?x5478 ?x5041)))
(let ((?x9672 (+ ?x9795 ?x4101)))
(let ((?x340 (+ ?x9672 ?x435)))
(let ((?x6401 (+ ?x340 ?x159)))
(let ((?x9561 (+ ?x6401 ?x3920)))
(let ((?x2109 (* 0.0 0.0)))
(let ((?x1304 (* 1.0 (~ 1.0))))
(let ((?x3066 (+ ?x1304 ?x2109)))
(let ((?x6150 (* ?x3066 |ElbowLeft Norm|)))
(let ((?x2494 (+ 0.0 ?x6150)))
(let ((?x6637 (+ ?x2494 ?x420)))
(let ((?x8087 (+ ?x6637 ?x435)))
(let ((?x4693 (+ ?x8087 ?x159)))
(let ((?x2083 (+ ?x4693 ?x6150)))
(let ((?x9539 (- ?x2083 ?x9561)))
(let ((?x3033 (- 0.0 ?x9539)))
(let (($x9503 (>= ?x9539 0.0)))
(let ((?x6165 (ite $x9503 ?x9539 ?x3033)))
(let ((?x4421 (* |HandRight Y| |HandRight Norm|)))
(let ((?x443 (* |SpineMid Y| |SpineMid Norm|)))
(let ((?x427 (* |SpineShoulder Y| |SpineShoulder Norm|)))
(let ((?x6247 (* (~ 1.0) |ElbowRight Norm|)))
(let ((?x4426 (* (~ 1.0) |WristRight Norm|)))
(let ((?x4697 (+ 0.0 ?x4421)))
(let ((?x8282 (+ ?x4697 ?x4426)))
(let ((?x7182 (+ ?x8282 ?x6247)))
(let ((?x8148 (+ ?x7182 ?x5302)))
(let ((?x9376 (+ ?x8148 ?x427)))
(let ((?x9758 (+ ?x9376 ?x443)))
(let ((?x9611 (+ ?x9758 ?x4421)))
(let ((?x2389 (* (~ 1.0) 0.0)))
(let ((?x3991 (* 0.0 (~ 1.0))))
(let ((?x11678 (+ ?x3991 ?x2389)))
(let ((?x1895 (* ?x11678 |ElbowLeft Norm|)))
(let ((?x3631 (+ 0.0 ?x1895)))
(let ((?x9902 (+ ?x3631 ?x417)))
(let ((?x12221 (+ ?x9902 ?x427)))
(let ((?x8402 (+ ?x12221 ?x443)))
(let ((?x5887 (+ ?x8402 ?x1895)))
(let ((?x9662 (- ?x5887 ?x9611)))
(let ((?x11079 (- 0.0 ?x9662)))
(let (($x11517 (>= ?x9662 0.0)))
(let ((?x9679 (ite $x11517 ?x9662 ?x11079)))
(let ((?x5582 (* |HandRight X| |HandRight Norm|)))
(let ((?x441 (* |SpineMid X| |SpineMid Norm|)))
(let ((?x426 (* |SpineShoulder X| |SpineShoulder Norm|)))
(let ((?x4842 (+ 0.0 ?x5582)))
(let ((?x2926 (+ ?x4842 ?x9996)))
(let ((?x9716 (+ ?x2926 ?x5041)))
(let ((?x5661 (+ ?x9716 ?x5113)))
(let ((?x9919 (+ ?x5661 ?x426)))
(let ((?x2309 (+ ?x9919 ?x441)))
(let ((?x6235 (+ ?x2309 ?x5582)))
(let ((?x3044 (+ 0.0 ?x7599)))
(let ((?x9650 (+ ?x3044 ?x416)))
(let ((?x2190 (+ ?x9650 ?x426)))
(let ((?x8241 (+ ?x2190 ?x441)))
(let ((?x9767 (+ ?x8241 ?x7599)))
(let ((?x9736 (- ?x9767 ?x6235)))
(let ((?x10047 (- 0.0 ?x9736)))
(let (($x5287 (>= ?x9736 0.0)))
(let ((?x9867 (ite $x5287 ?x9736 ?x10047)))
(let (($x3788 (>= ?x9867 ?x9679)))
(let ((?x13945 (ite $x3788 ?x9867 ?x9679)))
(let (($x8974 (>= ?x13945 ?x6165)))
(let ((?x6667 (ite $x8974 ?x13945 ?x6165)))
(let (($x7319 (< ?x6667 (/ 1.0 5.0))))
(let (($x9402 (and true $x7319)))
(let (($x8791 (and $x6883 $x9402)))
(let ((?x9194 (- |ThumbRight Z| |ThumbRight Z|)))
(let ((?x8486 (- 0.0 ?x9194)))
(let (($x6679 (>= ?x9194 0.0)))
(let ((?x8796 (ite $x6679 ?x9194 ?x8486)))
(let ((?x7398 (- |ThumbRight Y| |ThumbRight Y|)))
(let ((?x2945 (- 0.0 ?x7398)))
(let (($x2946 (>= ?x7398 0.0)))
(let ((?x10061 (ite $x2946 ?x7398 ?x2945)))
(let ((?x9143 (- |ThumbRight X| |ThumbRight X|)))
(let ((?x8632 (- 0.0 ?x9143)))
(let (($x4961 (>= ?x9143 0.0)))
(let ((?x11066 (ite $x4961 ?x9143 ?x8632)))
(let (($x9863 (>= ?x11066 ?x10061)))
(let ((?x2010 (ite $x9863 ?x11066 ?x10061)))
(let (($x8858 (>= ?x2010 ?x8796)))
(let ((?x7351 (ite $x8858 ?x2010 ?x8796)))
(let (($x10727 (< ?x7351 15.0)))
(let (($x9765 (and $x10727)))
(and $x9765 $x8791 $x8987))))))))))))))))))))))))))))))))))))))))))))))))))))))))))))))))))))))))))))))))))))))))))))))))))))))))))))))))))))))))))))))))))))))))))))))))))))))))))))))))))))))))))))
(check-sat)
